* ENCODING=ISO-8859-1
NAME          CPLEX
ROWS
 N  obj1    
 G  c1      
 G  c2      
 G  c3      
 G  c4      
 G  c5      
 G  c6      
 G  c7      
 G  c8      
 G  c9      
 G  c10     
 G  c11     
 G  c12     
 G  c13     
 G  c14     
 G  c15     
 G  c16     
 G  c17     
 G  c18     
 G  c19     
 G  c20     
 G  c21     
 G  c22     
 G  c23     
 G  c24     
 G  c25     
COLUMNS
    MARK0000  'MARKER'                 'INTORG'
    x1        obj1                            1
    x1        c9                            948
    x1        c14                           935
    x1        c20                           693
    x2        obj1                            1
    x2        c9                            801
    x2        c11                           763
    x2        c13                           888
    x3        obj1                            1
    x3        c11                           304
    x3        c16                           635
    x4        obj1                            1
    x4        c5                            305
    x4        c14                           515
    x4        c21                           757
    x5        obj1                            1
    x5        c7                            579
    x5        c9                            983
    x5        c20                           489
    x6        obj1                            1
    x6        c8                            812
    x6        c12                           726
    x6        c17                           522
    x7        obj1                            1
    x7        c2                            809
    x8        obj1                            1
    x8        c22                           328
    x9        obj1                            1
    x9        c6                            224
    x9        c9                            210
    x10       obj1                            1
    x10       c13                           228
    x10       c18                           351
    x11       obj1                            1
    x11       c8                            808
    x11       c20                           824
    x11       c24                           903
    x12       obj1                            1
    x12       c8                            823
    x13       obj1                            1
    x13       c3                            107
    x13       c12                           109
    x14       obj1                            1
    x14       c6                            729
    x14       c18                           858
    x14       c20                           456
    x14       c22                           460
    x14       c24                           385
    x14       c25                           850
    x15       obj1                            1
    x15       c15                           259
    x15       c18                           203
    x15       c19                           338
    x16       obj1                            1
    x16       c2                            220
    x16       c10                           841
    x16       c12                           618
    x16       c17                           425
    x16       c20                           325
    x17       obj1                            1
    x17       c1                            348
    x17       c6                            617
    x18       obj1                            1
    x18       c5                            113
    x18       c12                           916
    x18       c14                           756
    x18       c21                           144
    x19       obj1                            1
    x19       c4                            221
    x20       obj1                            1
    x20       c21                           525
    x21       obj1                            1
    x21       c2                            377
    x21       c18                           961
    x21       c21                           607
    x22       obj1                            1
    x22       c1                            640
    x22       c4                            720
    x22       c6                            811
    x22       c22                           944
    x23       obj1                            1
    x23       c1                            874
    x23       c25                           482
    x24       obj1                            1
    x25       obj1                            1
    x25       c6                            170
    x25       c7                            703
    x25       c10                           628
    x25       c17                           401
    x26       obj1                            1
    x26       c2                            951
    x26       c4                            766
    x26       c15                           952
    x26       c25                           793
    x27       obj1                            1
    x27       c16                           795
    x28       obj1                            1
    x28       c9                            293
    x28       c10                           589
    x28       c11                           422
    x28       c13                           136
    x29       obj1                            1
    x29       c6                            709
    x29       c12                           427
    x29       c18                           767
    x29       c22                           984
    x30       obj1                            1
    x30       c4                            658
    x30       c19                           614
    x30       c24                           569
    x31       obj1                            1
    x31       c13                           329
    x31       c24                           948
    x32       obj1                            1
    x32       c4                            367
    x32       c13                           193
    x32       c19                           259
    x33       obj1                            1
    x33       c5                            734
    x33       c10                           161
    x34       obj1                            1
    x34       c1                            668
    x34       c19                           431
    x34       c23                           946
    x35       obj1                            1
    x35       c3                            332
    x35       c21                           803
    x35       c22                           661
    x36       obj1                            1
    x36       c18                           326
    x37       obj1                            1
    x37       c3                            601
    x37       c10                           192
    x38       obj1                            1
    x38       c6                            688
    x39       obj1                            1
    x39       c12                           919
    x39       c15                           373
    x39       c16                           242
    x40       obj1                            1
    x41       obj1                            1
    x42       obj1                            1
    x42       c1                            376
    x42       c7                            740
    x42       c17                           313
    x42       c19                           908
    x42       c25                           540
    x43       obj1                            1
    x43       c8                            725
    x43       c23                           181
    x43       c25                           672
    x44       obj1                            1
    x44       c24                           477
    x45       obj1                            1
    x45       c2                            111
    x45       c7                            716
    x45       c13                           472
    x45       c17                           640
    x45       c19                           825
    x45       c24                           627
    x46       obj1                            1
    x46       c2                            921
    x46       c10                           285
    x46       c11                           982
    x46       c18                           934
    x47       obj1                            1
    x47       c10                           638
    x47       c21                           146
    x47       c23                           231
    x48       obj1                            1
    x48       c8                            322
    x49       obj1                            1
    x49       c8                            107
    x49       c19                           144
    x49       c25                           501
    x50       obj1                            1
    x50       c1                            188
    x50       c2                            950
    MARK0001  'MARKER'                 'INTEND'
RHS
    rhs       c1                           1547
    rhs       c2                           2170
    rhs       c3                            520
    rhs       c4                           1366
    rhs       c5                            576
    rhs       c6                           1974
    rhs       c7                           1369
    rhs       c8                           1799
    rhs       c9                           1618
    rhs       c10                          1667
    rhs       c11                          1236
    rhs       c12                          1858
    rhs       c13                          1123
    rhs       c14                          1103
    rhs       c15                           792
    rhs       c16                           836
    rhs       c17                          1151
    rhs       c18                          2200
    rhs       c19                          1760
    rhs       c20                          1394
    rhs       c21                          1491
    rhs       c22                          1689
    rhs       c23                           679
    rhs       c24                          1955
    rhs       c25                          1919
BOUNDS
 LI bnd       x1        0
 LI bnd       x2        0
 LI bnd       x3        0
 LI bnd       x4        0
 LI bnd       x5        0
 LI bnd       x6        0
 LI bnd       x7        0
 LI bnd       x8        0
 LI bnd       x9        0
 LI bnd       x10       0
 LI bnd       x11       0
 LI bnd       x12       0
 LI bnd       x13       0
 LI bnd       x14       0
 LI bnd       x15       0
 LI bnd       x16       0
 LI bnd       x17       0
 LI bnd       x18       0
 LI bnd       x19       0
 LI bnd       x20       0
 LI bnd       x21       0
 LI bnd       x22       0
 LI bnd       x23       0
 LI bnd       x24       0
 LI bnd       x25       0
 LI bnd       x26       0
 LI bnd       x27       0
 LI bnd       x28       0
 LI bnd       x29       0
 LI bnd       x30       0
 LI bnd       x31       0
 LI bnd       x32       0
 LI bnd       x33       0
 LI bnd       x34       0
 LI bnd       x35       0
 LI bnd       x36       0
 LI bnd       x37       0
 LI bnd       x38       0
 LI bnd       x39       0
 LI bnd       x40       0
 LI bnd       x41       0
 LI bnd       x42       0
 LI bnd       x43       0
 LI bnd       x44       0
 LI bnd       x45       0
 LI bnd       x46       0
 LI bnd       x47       0
 LI bnd       x48       0
 LI bnd       x49       0
 LI bnd       x50       0
ENDATA
